qbf_easy_train/easy_3139_SAT.qdimacs
p cnf 25 65
a 10 5 0
e 1 2 3 4 6 7 8 9 11 12 13 14 15 16 17 18 19 20 21 22 23 24 25 0
-3 1 0
-3 -2 0
-1 2 3 0
-4 -5 -6 0
4 5 -6 0
-4 5 6 0
4 -5 6 0
7 2 0
7 6 0
-2 -6 -7 0
7 -8 -9 0
-7 8 -9 0
7 8 9 0
-7 -8 9 0
10 3 0
10 9 0
-3 -9 -10 0
-12 -2 0
-12 -11 0
2 11 12 0
13 10 0
13 12 0
-10 -12 -13 0
-16 -15 0
-16 14 0
15 -14 16 0
15 16 -17 0
-15 -16 -17 0
15 -16 17 0
-15 16 17 0
-18 -2 0
-18 11 0
2 -11 18 0
17 18 -19 0
-17 -18 -19 0
17 -18 19 0
-17 18 19 0
-14 19 -20 0
14 -19 -20 0
-14 -19 20 0
14 19 20 0
-4 14 -21 0
4 -14 -21 0
-4 -14 21 0
4 14 21 0
-20 21 -22 0
20 -21 -22 0
-20 -21 22 0
20 21 22 0
23 17 0
23 -17 0
-24 -22 0
-24 23 0
22 -23 24 0
13 -24 -25 0
-13 24 -25 0
13 24 25 0
-13 -24 25 0
17 -12 24 20 15 2 0
-17 -9 -1 -14 -12 -11 -25 0
2 3 6 24 12 0
17 1 -19 10 -23 -5 -7 -20 0
7 4 -6 16 -25 -2 -19 0
14 -4 -2 0
25 0
