sat_easy_train/easy_3139_SAT.dimacs
p cnf 132 438
3 1 0
3 -2 0
-1 2 -3 0
-5 -4 0
-5 3 0
4 -3 5 0
6 -3 0
6 5 0
3 -5 -6 0
9 7 0
9 8 0
-7 -8 -9 0
-12 -10 0
-12 -11 0
10 11 12 0
1 -12 -13 0
-1 12 -13 0
1 12 13 0
-1 -12 13 0
-9 13 -14 0
9 -13 -14 0
-9 -13 14 0
9 13 14 0
16 1 0
16 12 0
-1 -12 -16 0
-17 -16 0
-17 10 0
16 -10 17 0
19 -12 0
19 -18 0
12 18 -19 0
-17 19 -20 0
17 -19 -20 0
-17 -19 20 0
17 19 20 0
-22 -20 0
-22 21 0
20 -21 22 0
-24 -22 0
-24 23 0
22 -23 24 0
25 15 0
25 -24 0
-15 24 -25 0
-26 14 0
-26 25 0
-14 -25 26 0
27 6 0
27 26 0
-6 -26 -27 0
28 -17 0
28 -3 0
17 3 -28 0
-29 16 0
-29 -4 0
-16 4 29 0
31 30 0
31 30 0
-30 -31 0
-32 29 0
-32 31 0
-29 -31 32 0
-33 -28 0
-33 32 0
28 -32 33 0
35 34 0
35 29 0
-34 -29 -35 0
36 -3 0
36 3 0
-37 -35 0
-37 36 0
35 -36 37 0
-39 10 0
-39 38 0
-10 -38 39 0
-40 -39 0
-40 -30 0
39 30 40 0
-41 -37 0
-41 -40 0
37 40 41 0
33 -41 -42 0
-33 41 -42 0
33 41 42 0
-33 -41 42 0
-27 -42 -43 0
27 42 -43 0
-27 42 43 0
27 -42 43 0
-44 -18 0
-44 -38 0
18 38 44 0
45 -1 0
45 -4 0
1 4 -45 0
-38 -45 -46 0
38 45 -46 0
-38 45 46 0
38 -45 46 0
-3 -9 -47 0
3 9 -47 0
-3 9 47 0
3 -9 47 0
-14 47 -48 0
14 -47 -48 0
-14 -47 48 0
14 47 48 0
-49 -2 0
-49 -48 0
2 48 49 0
46 -49 -50 0
-46 49 -50 0
46 49 50 0
-46 -49 50 0
51 44 0
51 50 0
-44 -50 -51 0
-52 46 0
-52 5 0
-46 -5 52 0
53 25 0
53 -20 0
-25 20 -53 0
52 -53 -54 0
-52 53 -54 0
52 53 54 0
-52 -53 54 0
-56 -18 0
-56 -55 0
18 55 56 0
18 -56 -57 0
-18 56 -57 0
18 56 57 0
-18 -56 57 0
58 -57 0
58 -22 0
57 22 -58 0
-59 4 0
-59 7 0
-4 -7 59 0
60 58 0
60 -59 0
-58 59 -60 0
61 -54 0
61 -60 0
54 60 -61 0
51 -61 -62 0
-51 61 -62 0
51 61 62 0
-51 -61 62 0
38 56 -63 0
-38 -56 -63 0
38 -56 63 0
-38 56 63 0
-64 63 0
-64 -48 0
-63 48 64 0
15 -64 -65 0
-15 64 -65 0
15 64 65 0
-15 -64 65 0
-66 -62 0
-66 65 0
62 -65 66 0
-56 -19 -67 0
56 19 -67 0
-56 19 67 0
56 -19 67 0
45 67 -68 0
-45 -67 -68 0
45 -67 68 0
-45 67 68 0
-69 -38 0
-69 -30 0
38 30 69 0
-70 -3 0
-70 -38 0
3 38 70 0
-69 -70 -71 0
69 70 -71 0
-69 70 71 0
69 -70 71 0
-72 -68 0
-72 -71 0
68 71 72 0
73 -12 0
73 -72 0
12 72 -73 0
-74 -29 0
-74 21 0
29 -21 74 0
-75 -74 0
-75 -10 0
74 10 75 0
-76 14 0
-76 63 0
-14 -63 76 0
-76 -3 -77 0
76 3 -77 0
-76 3 77 0
76 -3 77 0
48 -32 -78 0
-48 32 -78 0
48 32 78 0
-48 -32 78 0
79 -77 0
79 -78 0
77 78 -79 0
80 22 0
80 22 0
-22 -80 0
-81 -79 0
-81 -80 0
79 80 81 0
-75 -81 -82 0
75 81 -82 0
-75 81 82 0
75 -81 82 0
83 -73 0
83 82 0
73 -82 -83 0
84 -18 0
84 11 0
18 -11 -84 0
85 -34 0
85 -63 0
34 63 -85 0
-86 67 0
-86 -47 0
-67 47 86 0
-46 86 -87 0
46 -86 -87 0
-46 -86 87 0
46 86 87 0
85 -87 -88 0
-85 87 -88 0
85 87 88 0
-85 -87 88 0
-89 -84 0
-89 88 0
84 -88 89 0
90 83 0
90 -89 0
-83 89 -90 0
91 63 0
91 -34 0
-63 34 -91 0
92 91 0
92 15 0
-91 -15 -92 0
4 22 -93 0
-4 -22 -93 0
4 -22 93 0
-4 22 93 0
-95 -93 0
-95 94 0
93 -94 95 0
-67 56 -96 0
67 -56 -96 0
-67 -56 96 0
67 56 96 0
-95 -96 -97 0
95 96 -97 0
-95 96 97 0
95 -96 97 0
-98 92 0
-98 -97 0
-92 97 98 0
-99 28 0
-99 2 0
-28 -2 99 0
100 99 0
100 -11 0
-99 11 -100 0
101 30 0
101 -30 0
-16 18 -102 0
16 -18 -102 0
-16 -18 102 0
16 18 102 0
-101 102 -103 0
101 -102 -103 0
-101 -102 103 0
101 102 103 0
104 -103 0
104 10 0
103 -10 -104 0
-105 19 0
-105 -45 0
-19 45 105 0
106 104 0
106 105 0
-104 -105 -106 0
107 100 0
107 106 0
-100 -106 -107 0
-108 -98 0
-108 107 0
98 -107 108 0
56 4 -109 0
-56 -4 -109 0
56 -4 109 0
-56 4 109 0
-24 -9 -110 0
24 9 -110 0
-24 9 110 0
24 -9 110 0
-109 -110 -111 0
109 110 -111 0
-109 110 111 0
109 -110 111 0
-5 63 -112 0
5 -63 -112 0
-5 -63 112 0
5 63 112 0
113 -23 0
113 -7 0
23 7 -113 0
-114 112 0
-114 113 0
-112 -113 114 0
-111 114 -115 0
111 -114 -115 0
-111 -114 115 0
111 114 115 0
116 -108 0
116 115 0
108 -115 -116 0
117 -32 0
117 55 0
32 -55 -117 0
118 30 0
118 28 0
-30 -28 -118 0
-119 117 0
-119 -118 0
-117 118 119 0
120 -15 0
120 39 0
15 -39 -120 0
-121 3 0
-121 56 0
-3 -56 121 0
-122 -121 0
-122 16 0
121 -16 122 0
-123 120 0
-123 -122 0
-120 122 123 0
124 119 0
124 123 0
-119 -123 -124 0
116 -124 -125 0
-116 124 -125 0
116 124 125 0
-116 -124 125 0
126 -7 0
126 -14 0
7 14 -126 0
-127 -21 0
-127 28 0
21 -28 127 0
-128 -126 0
-128 -127 0
126 127 128 0
129 125 0
129 -128 0
-125 128 -129 0
90 -129 -130 0
-90 129 -130 0
90 129 130 0
-90 -129 130 0
131 -66 0
131 130 0
66 -130 -131 0
132 43 0
132 131 0
-43 -131 -132 0
94 -105 38 132 0
-43 -96 67 11 -125 63 0
98 13 -39 67 45 0
-28 83 -65 -66 0
-102 61 34 -50 9 0
81 -52 -65 0
-1 -38 113 0
115 121 0
-43 118 -63 -73 0
-7 -70 79 0
55 -6 0
-66 13 0
98 38 -28 0
-42 -123 58 17 130 0
-112 22 86 124 -130 0
82 -45 104 114 -64 0
-110 -37 129 60 0
118 128 -124 0
64 -67 40 -95 0
-117 -26 131 107 116 0
-1 29 0
87 35 -107 -11 0
-113 15 -62 -20 121 0
-17 -71 31 -77 82 0
-86 -29 15 -24 -119 0
-106 -10 -37 121 76 -70 0
-18 31 100 104 21 -35 0
26 95 0
99 90 89 -85 0
-124 43 -85 -61 103 -72 0
38 52 0
-1 -91 -68 51 80 0
-76 12 73 29 -15 0
123 -90 118 -59 -72 46 0
71 -2 0
-21 36 99 0
91 -103 -4 64 85 0
101 -82 0
75 -114 107 -129 0
-93 48 23 0
114 -101 0
-24 -18 -71 0
3 101 73 -113 -50 0
131 -59 -16 -45 93 0
-116 -10 29 89 94 31 0
121 8 -73 -87 106 49 0
-45 68 -126 -21 -128 0
85 29 0
107 28 -13 123 0
-129 -115 -87 -64 -55 -60 0
-93 6 -40 130 28 0
-61 -23 115 -63 0
90 -130 124 30 -57 0
-30 -13 -111 -94 -11 0
-26 64 115 -18 27 -8 0
46 -55 0
-84 22 32 -77 0
132 0
